c Instancia generada aleatoriamente
p edge 50 309
e 1 3
e 1 9
e 1 11
e 1 13
e 1 15
e 1 19
e 1 20
e 1 23
e 1 29
e 1 34
e 1 35
e 1 48
e 1 50
e 2 4
e 2 7
e 2 8
e 2 19
e 2 20
e 2 27
e 2 29
e 2 31
e 2 37
e 2 40
e 2 41
e 2 49
e 3 4
e 3 6
e 3 8
e 3 9
e 3 10
e 3 13
e 3 15
e 3 26
e 3 27
e 3 28
e 3 32
e 3 42
e 3 46
e 3 50
e 4 8
e 4 9
e 4 14
e 4 18
e 4 21
e 4 26
e 4 30
e 4 36
e 4 42
e 4 48
e 4 49
e 5 8
e 5 12
e 5 14
e 5 18
e 5 19
e 5 20
e 5 22
e 5 27
e 5 31
e 5 32
e 5 33
e 5 38
e 5 45
e 5 46
e 5 47
e 6 7
e 6 9
e 6 13
e 6 14
e 6 17
e 6 19
e 6 28
e 6 33
e 6 37
e 6 38
e 6 41
e 6 47
e 7 9
e 7 11
e 7 12
e 7 15
e 7 17
e 7 21
e 7 23
e 7 26
e 7 34
e 7 35
e 7 36
e 7 37
e 7 44
e 7 45
e 8 9
e 8 12
e 8 15
e 8 16
e 8 17
e 8 20
e 8 24
e 8 31
e 8 35
e 8 38
e 8 47
e 8 50
e 9 15
e 9 22
e 9 27
e 10 12
e 10 14
e 10 17
e 10 19
e 10 30
e 10 31
e 10 39
e 11 20
e 11 21
e 11 23
e 11 31
e 11 41
e 11 45
e 11 49
e 12 13
e 12 18
e 12 21
e 12 25
e 12 27
e 12 32
e 12 34
e 12 37
e 12 49
e 13 22
e 13 23
e 13 24
e 13 26
e 13 28
e 13 30
e 13 31
e 13 35
e 13 36
e 13 46
e 13 48
e 14 28
e 14 30
e 14 38
e 14 39
e 14 50
e 15 17
e 15 18
e 15 19
e 15 21
e 15 24
e 15 27
e 15 29
e 15 30
e 15 32
e 15 33
e 15 34
e 15 36
e 15 37
e 15 39
e 15 47
e 16 19
e 16 27
e 16 34
e 16 43
e 16 44
e 17 19
e 17 25
e 17 28
e 17 29
e 17 30
e 17 36
e 17 45
e 17 49
e 18 26
e 18 35
e 18 38
e 18 39
e 18 41
e 18 48
e 19 20
e 19 21
e 19 25
e 19 28
e 19 33
e 19 47
e 19 49
e 19 50
e 20 21
e 20 28
e 20 29
e 20 31
e 20 34
e 20 35
e 20 37
e 20 40
e 21 22
e 21 24
e 21 25
e 21 28
e 21 35
e 21 37
e 21 39
e 21 42
e 21 43
e 21 48
e 22 23
e 22 26
e 22 28
e 22 30
e 22 37
e 22 38
e 22 40
e 22 41
e 22 42
e 22 44
e 22 45
e 22 46
e 22 49
e 23 36
e 23 44
e 23 46
e 24 35
e 24 40
e 24 42
e 24 49
e 25 28
e 25 31
e 25 40
e 25 45
e 25 46
e 25 47
e 26 27
e 26 30
e 26 33
e 26 34
e 26 35
e 26 44
e 26 48
e 26 49
e 27 33
e 27 34
e 27 39
e 27 43
e 27 46
e 27 47
e 27 49
e 28 29
e 28 31
e 28 36
e 28 38
e 28 39
e 28 41
e 28 44
e 28 47
e 28 50
e 29 30
e 29 35
e 29 37
e 29 39
e 29 40
e 29 44
e 29 47
e 29 50
e 30 32
e 30 38
e 30 46
e 30 47
e 30 50
e 31 32
e 31 33
e 31 41
e 31 46
e 32 33
e 32 40
e 32 45
e 33 35
e 33 37
e 33 44
e 33 46
e 34 35
e 34 39
e 34 41
e 34 47
e 34 49
e 35 44
e 35 46
e 36 39
e 36 42
e 36 43
e 37 40
e 37 45
e 38 44
e 38 46
e 39 42
e 39 49
e 40 41
e 40 45
e 40 50
e 41 47
e 42 43
e 42 45
e 42 46
e 42 47
e 43 50
e 44 45
e 44 48
e 45 50
e 47 48
e 48 50
